VACCINE = Vaccine(1..2);
m = 24;
age = [YOUTH, AGED, YOUTH, SENIOR, BABY, ANCIENT, ADULT, CHILD, ADULT, SENIOR, SENIOR, CHILD, YOUTH, SENIOR, CHILD, AGED, BABY, ADULT, AGED, YOUTH, BABY, ANCIENT, BABY, BABY];
gender = [OTHER, FEMALE, FEMALE, MALE, FEMALE, MALE, MALE, OTHER, OTHER, MALE, OTHER, OTHER, MALE, MALE, OTHER, FEMALE, MALE, MALE, MALE, MALE, MALE, MALE, FEMALE, MALE];
health = [COMPROMISED, COMPROMISED, COMPROMISED, GOOD, POOR, GOOD, GOOD, GOOD, POOR, GOOD, POOR, GOOD, COMPROMISED, COMPROMISED, POOR, COMPROMISED, GOOD, GOOD, GOOD, POOR, COMPROMISED, GOOD, GOOD, POOR];
exposure = [LOW, AVERAGE, AVERAGE, EXTREME, HIGH, AVERAGE, AVERAGE, AVERAGE, AVERAGE, EXTREME, LOW, HIGH, AVERAGE, AVERAGE, AVERAGE, AVERAGE, HIGH, HIGH, LOW, EXTREME, HIGH, HIGH, HIGH, HIGH];
size = [12, 10, 13, 14, 10, 9, 10, 11, 13, 14, 14, 13, 13, 11, 9, 13, 9, 13, 12, 10, 14, 10, 13, 9];
minsize = 9;
age_group_min = [1, 1, 1, 0, 1, 1, 1];
age_group_max = [19, 19, 20, 22, 21, 14, 20];
max_people_diff = 133;
max_share_vaccines = 2;
health_information = {5, 10, 12};
exposure_information = {1, 3, 4, 5};